p cnf 22 32
10 1 0
10 8 0
-1 -8 -10 0
11 3 0
11 6 0
-3 -6 -11 0
16 14 0
16 2 0
-14 -2 -16 0
19 15 0
19 7 0
-15 -7 -19 0
22 10 0
22 20 0
-10 -20 -22 0
23 19 0
23 21 0
-19 -21 -23 0
3 -8 0
8 -3 0
3 -9 0
9 -3 0
11 -14 0
14 -11 0
11 -15 0
15 -11 0
16 -20 0
20 -16 0
16 -21 0
21 -16 0
p cnf 22 30
10 1 0
10 8 0
-1 -8 -10 0
11 3 0
11 6 0
-3 -6 -11 0
16 14 0
16 2 0
-14 -2 -16 0
19 15 0
19 7 0
-15 -7 -19 0
22 10 0
22 20 0
-10 -20 -22 0
23 19 0
23 21 0
-19 -21 -23 0
3 -8 0
8 -3 0
3 -9 0
9 -3 0
11 -14 0
14 -11 0
11 -15 0
15 -11 0
16 -20 0
20 -16 0
16 -21 0
21 -16 0
-23 0
3 0
